========================================================== 
File name: C:\DEGR\assets\definitions\MSRCPSP_Gen\200_5_64_5_B.def
Creation date: Wed May 03 10:45:21 CEST 2023
Website: http://imopse.ii.pwr.edu.pl/ 
Reference: 
Myszkowski P. B., Skowronski M. E., Olech L., Oslizlo K., 
Hybrid Ant Colony Optimization in solving Multi-Skill Resource-Constrained Project Scheduling Problem, 
Soft Computing, DOI: DOI 10.1007/s00500-014-1455-x 
========================================================== 
General characteristics: 
Tasks: 200
Resources: 5
Precedence relations: 64
Number of skill types: 5
========================================================== 
ResourceID 	 Salary 	 Skills 
1	 	 	60.2	 	 Q4: 0 	 
2	 	 	39.5	 	 Q0: 3 	 
3	 	 	62.3	 	 Q1: 3 	 
4	 	 	62.4	 	 Q4: 0 	 
5	 	 	80.1	 	 Q2: 2 	  Q3: 2 	 
========================================================== 
TaskID 	 Duration 	 Skill 	 Predecessor IDs 
1	34	Q4:	0
2	29	Q4:	0
3	37	Q1:	3
4	9	Q4:	0
5	34	Q1:	3
6	31	Q4:	0
7	35	Q3:	2
8	23	Q2:	2
9	22	Q1:	3
10	38	Q0:	3
11	31	Q4:	0
12	38	Q1:	3
13	40	Q0:	3
14	35	Q1:	3
15	35	Q3:	2
16	24	Q1:	3
17	31	Q1:	3
18	14	Q3:	2
19	23	Q3:	2
20	25	Q0:	3
21	19	Q3:	2
22	13	Q2:	2
23	20	Q3:	2
24	22	Q2:	2
25	29	Q2:	2
26	21	Q3:	2
27	39	Q2:	2
28	27	Q2:	2
29	39	Q3:	2
30	29	Q2:	2
31	18	Q4:	0
32	21	Q4:	0
33	39	Q3:	2	2	13
34	21	Q2:	2
35	16	Q1:	3	23
36	31	Q4:	0
37	37	Q2:	2
38	11	Q0:	3
39	18	Q1:	3
40	36	Q3:	2
41	14	Q1:	3
42	20	Q4:	0	19
43	16	Q4:	0
44	10	Q4:	0
45	29	Q0:	3
46	16	Q1:	3	11
47	35	Q2:	2
48	15	Q4:	0
49	11	Q2:	2	13	17
50	17	Q4:	0
51	38	Q4:	0
52	37	Q4:	0
53	37	Q4:	0
54	21	Q0:	3
55	12	Q3:	2
56	14	Q3:	2
57	19	Q4:	0
58	13	Q0:	3
59	10	Q0:	3
60	24	Q0:	3	39
61	11	Q1:	3	26	45
62	24	Q0:	3
63	18	Q2:	2
64	36	Q0:	3	4
65	18	Q4:	0	3
66	30	Q4:	0
67	15	Q0:	3
68	12	Q1:	3
69	32	Q3:	2
70	13	Q0:	3
71	30	Q1:	3
72	15	Q3:	2
73	24	Q1:	3
74	31	Q4:	0
75	12	Q0:	3	43
76	18	Q0:	3
77	38	Q2:	2
78	25	Q4:	0
79	22	Q2:	2
80	34	Q0:	3	39
81	37	Q1:	3
82	12	Q4:	0	7
83	16	Q1:	3
84	38	Q1:	3	61
85	25	Q2:	2
86	28	Q4:	0
87	15	Q4:	0	41
88	24	Q1:	3
89	20	Q2:	2
90	24	Q2:	2
91	34	Q0:	3
92	16	Q1:	3	40
93	21	Q3:	2
94	21	Q1:	3
95	10	Q0:	3
96	14	Q1:	3
97	37	Q0:	3
98	33	Q1:	3
99	24	Q0:	3
100	25	Q4:	0
101	24	Q1:	3
102	13	Q4:	0
103	24	Q3:	2	70
104	13	Q3:	2
105	38	Q2:	2
106	16	Q1:	3	88
107	10	Q3:	2
108	14	Q1:	3
109	14	Q4:	0
110	23	Q4:	0
111	32	Q4:	0
112	38	Q4:	0	26
113	37	Q2:	2
114	31	Q2:	2	33
115	10	Q2:	2
116	15	Q4:	0	97
117	40	Q0:	3
118	14	Q2:	2
119	34	Q3:	2
120	17	Q0:	3
121	39	Q3:	2
122	21	Q1:	3	4
123	26	Q0:	3	79	40
124	15	Q1:	3
125	15	Q4:	0
126	19	Q1:	3	58
127	17	Q0:	3
128	37	Q4:	0
129	22	Q2:	2
130	36	Q4:	0	15
131	35	Q0:	3	93	40
132	38	Q2:	2	7
133	18	Q2:	2
134	39	Q2:	2
135	34	Q4:	0	78
136	13	Q4:	0
137	19	Q4:	0
138	29	Q3:	2
139	13	Q2:	2
140	21	Q3:	2
141	32	Q2:	2
142	30	Q2:	2
143	25	Q2:	2	15
144	25	Q0:	3
145	25	Q2:	2
146	18	Q0:	3	82
147	38	Q0:	3
148	13	Q2:	2
149	18	Q0:	3
150	20	Q1:	3
151	20	Q3:	2
152	37	Q4:	0	44
153	27	Q3:	2
154	38	Q2:	2
155	24	Q2:	2
156	39	Q2:	2
157	40	Q1:	3	71	126	72	96
158	30	Q0:	3
159	23	Q1:	3	156
160	33	Q2:	2
161	34	Q1:	3
162	25	Q0:	3
163	31	Q1:	3	51
164	10	Q1:	3
165	21	Q3:	2
166	25	Q0:	3
167	20	Q2:	2	78
168	38	Q4:	0
169	20	Q1:	3
170	25	Q1:	3	58
171	15	Q4:	0
172	37	Q3:	2
173	38	Q4:	0	41
174	10	Q2:	2	150	111	156
175	10	Q1:	3
176	25	Q1:	3	140
177	31	Q4:	0
178	30	Q2:	2	147	92
179	20	Q4:	0
180	36	Q1:	3
181	36	Q1:	3
182	28	Q2:	2	71
183	16	Q4:	0	148
184	37	Q3:	2
185	20	Q1:	3	94	43
186	34	Q1:	3	83
187	37	Q1:	3
188	20	Q2:	2	105	83
189	12	Q2:	2
190	40	Q3:	2
191	37	Q1:	3	49
192	19	Q1:	3	106
193	18	Q4:	0
194	15	Q2:	2	83	73
195	10	Q4:	0	159
196	26	Q4:	0
197	17	Q3:	2	78
198	19	Q1:	3
199	25	Q2:	2
200	18	Q2:	2	159
========================================================== 